data/solutions/planning/wellformed/hard/highest_rank_objective/wellformed_hard_instance63_cplex.sol
Elapsed time: 46.12
Nodes explored: 22434
Nodes left: -
Relative gap: -
Upper bound: 21211552941.0
Lower bound: -
C[0]=20229.0
C[1]=20229.0
C[2]=20229.0
C[3]=20229.0
C[4]=20228.0
C[5]=20228.0
C[6]=20228.0
C[7]=20228.0
C[8]=20227.0
C[9]=20227.0
C[10]=20226.0
C[11]=20226.0
C[12]=20226.0
C[13]=20226.0
C[14]=20225.0
C[15]=20225.0
C[16]=20224.0
C[17]=20224.0
C[18]=20224.0
C[19]=20221.0
y[0]=14
y[1]=16
y[2]=5
y[3]=12
y[4]=19
y[5]=17
y[6]=3
y[7]=5
y[8]=9
y[9]=14
y[10]=6
y[11]=7
y[12]=12
y[13]=4
y[14]=7
y[15]=2
y[16]=15
y[17]=1
y[18]=7
y[19]=7
y[20]=12
y[21]=17
y[22]=12
y[23]=7
y[24]=9
y[25]=16
y[26]=10
y[27]=1
y[28]=3
y[29]=15
y[30]=18
y[31]=2
y[32]=16
y[33]=14
y[34]=3
y[35]=12
y[36]=7
y[37]=3
y[38]=16
y[39]=6
y[40]=3
y[41]=4
y[42]=15
y[43]=0
y[44]=18
y[45]=4
y[46]=17
y[47]=9
y[48]=9
y[49]=2
y[50]=7
y[51]=7
y[52]=17
y[53]=2
y[54]=7
y[55]=7
y[56]=1
y[57]=4
y[58]=7
y[59]=13
y[60]=6
y[61]=2
y[62]=3
y[63]=15
y[64]=11
y[65]=14
y[66]=13
y[67]=2
y[68]=14
y[69]=19
y[70]=5
y[71]=7
y[72]=3
y[73]=7
y[74]=5
y[75]=3
y[76]=16
y[77]=13
y[78]=0
y[79]=14
y[80]=7
y[81]=1
y[82]=4
y[83]=11
y[84]=11
y[85]=3
y[86]=7
y[87]=2
y[88]=3
y[89]=8
y[90]=6
y[91]=3
y[92]=8
y[93]=12
y[94]=14
y[95]=14
y[96]=16
y[97]=14
y[98]=8
y[99]=10
y[100]=12
y[101]=1
y[102]=7
y[103]=7
y[104]=3
y[105]=18
y[106]=18
y[107]=0
y[108]=18
y[109]=7
y[110]=16
y[111]=17
y[112]=10
y[113]=6
y[114]=9
y[115]=7
y[116]=14
y[117]=8
y[118]=5
y[119]=19
y[120]=4
y[121]=14
y[122]=16
y[123]=16
y[124]=15
y[125]=3
y[126]=3
y[127]=3
y[128]=18
y[129]=14
y[130]=14
y[131]=5
y[132]=3
y[133]=15
y[134]=14
y[135]=11
y[136]=6
y[137]=12
y[138]=16
y[139]=4
y[140]=2
y[141]=10
y[142]=16
y[143]=12
y[144]=16
y[145]=17
y[146]=9
y[147]=16
y[148]=3
y[149]=14
y[150]=17
y[151]=3
y[152]=4
y[153]=14
y[154]=9
y[155]=6
y[156]=14
y[157]=2
y[158]=10
y[159]=3
y[160]=12
y[161]=3
y[162]=3
y[163]=11
y[164]=16
y[165]=16
y[166]=1
y[167]=14
y[168]=8
y[169]=3
y[170]=1
y[171]=17
y[172]=12
y[173]=5
y[174]=6
y[175]=14
y[176]=8
y[177]=16
y[178]=8
y[179]=2
y[180]=3
y[181]=3
y[182]=8
y[183]=3
y[184]=3
y[185]=19
y[186]=7
y[187]=9
y[188]=14
y[189]=11
y[190]=3
y[191]=19
y[192]=4
y[193]=7
y[194]=3
y[195]=3
y[196]=6
y[197]=7
y[198]=0
y[199]=0
y[200]=19
y[201]=3
y[202]=3
y[203]=19
y[204]=0
y[205]=17
y[206]=17
y[207]=12
y[208]=10
y[209]=14
y[210]=16
y[211]=19
y[212]=3
y[213]=17
y[214]=0
y[215]=5
y[216]=16
y[217]=3
y[218]=14
y[219]=18
y[220]=4
y[221]=6
y[222]=19
y[223]=16
y[224]=1
y[225]=3
y[226]=4
y[227]=2
y[228]=15
y[229]=17
y[230]=3
y[231]=2
y[232]=15
y[233]=2
y[234]=2
y[235]=2
y[236]=15
y[237]=17
y[238]=3
y[239]=5
y[240]=3
y[241]=2
y[242]=18
y[243]=0
y[244]=14
y[245]=0
y[246]=19
y[247]=1
y[248]=13
y[249]=3
y[250]=7
y[251]=1
y[252]=18
y[253]=2
y[254]=1
y[255]=10
y[256]=6
y[257]=15
y[258]=5
y[259]=16
y[260]=18
y[261]=14
y[262]=10
y[263]=3
y[264]=14
y[265]=14
y[266]=6
y[267]=11
y[268]=13
y[269]=19
y[270]=5
y[271]=14
y[272]=7
y[273]=16
y[274]=3
y[275]=2
y[276]=11
y[277]=5
y[278]=16
y[279]=4
y[280]=0
y[281]=3
y[282]=14
y[283]=19
y[284]=0
y[285]=2
y[286]=14
y[287]=14
y[288]=13
y[289]=2
y[290]=3
y[291]=3
y[292]=4
y[293]=11
y[294]=9
y[295]=3
y[296]=14
y[297]=10
y[298]=15
y[299]=5
y[300]=14
y[301]=16
y[302]=14
y[303]=5
y[304]=10
y[305]=7
y[306]=19
y[307]=18
y[308]=17
y[309]=6
y[310]=17
y[311]=13
y[312]=14
y[313]=16
y[314]=0
y[315]=18
y[316]=3
y[317]=13
y[318]=3
y[319]=16
y[320]=10
y[321]=4
y[322]=8
y[323]=8
y[324]=14
y[325]=3
y[326]=9
y[327]=7
y[328]=11
y[329]=0
y[330]=17
y[331]=4
y[332]=9
y[333]=14
y[334]=7
y[335]=6
y[336]=6
y[337]=14
y[338]=0
y[339]=7
y[340]=16
y[341]=5
y[342]=16
y[343]=8
y[344]=13
y[345]=8
y[346]=14
y[347]=11
y[348]=3
y[349]=13
y[350]=8
y[351]=13
y[352]=11
y[353]=5
y[354]=10
y[355]=10
y[356]=2
y[357]=19
y[358]=9
y[359]=15
y[360]=16
y[361]=8
y[362]=0
y[363]=3
y[364]=16
y[365]=8
y[366]=2
y[367]=7
y[368]=10
y[369]=11
y[370]=15
y[371]=15
y[372]=11
y[373]=9
y[374]=16
y[375]=0
y[376]=19
y[377]=3
y[378]=13
y[379]=14
y[380]=7
y[381]=14
y[382]=11
y[383]=10
y[384]=14
y[385]=0
y[386]=14
y[387]=1
y[388]=6
y[389]=15
y[390]=3
y[391]=13
y[392]=19
y[393]=9
y[394]=11
y[395]=3
y[396]=12
y[397]=10
y[398]=9
y[399]=18
