data/solutions/planning/wellformed/hard/highest_rank_objective/wellformed_hard_instance63_cplex.log
Found incumbent of value 404529.000000 after 0.00 sec. (0.65 ticks)
Tried aggregator 2 times.
Aggregator did 20 substitutions.
Reduced MIP has 420 rows, 8001 columns, and 16020 nonzeros.
Reduced MIP has 8000 binaries, 0 generals, 0 SOSs, and 0 indicators.
Presolve time = 0.01 sec. (11.36 ticks)
Tried aggregator 1 time.
Reduced MIP has 420 rows, 8001 columns, and 16020 nonzeros.
Reduced MIP has 8000 binaries, 1 generals, 0 SOSs, and 0 indicators.
Presolve time = 0.01 sec. (7.34 ticks)
Probing time = 0.00 sec. (2.74 ticks)
Clique table members: 400.
MIP emphasis: balance optimality and feasibility.
MIP search method: dynamic search.
Parallel mode: none, using 1 thread.
Root relaxation solution time = 0.02 sec. (32.90 ticks)

        Nodes                                         Cuts/
   Node  Left     Objective  IInf  Best Integer    Best Bound    ItCnt     Gap

*     0+    0                       404529.0000        0.0000           100.00%
      0     0    20226.4500    38   404529.0000    20226.4500      386   95.00%
*     0+    0                        21081.0000    20226.4500             4.05%
      0     0    20227.0000    37    21081.0000      Fract: 5      413    4.05%
      0     0    20227.0000    43    21081.0000      Cuts: 35      483    4.05%
*     0+    0                        21043.0000    20227.0000             3.88%
      0     0    20227.0000    44    21043.0000      Cuts: 16      539    3.88%
*     0+    0                        20862.0000    20227.0000             3.04%
*     0+    0                        20744.0000    20227.0000             2.49%
      0     2    20227.0000    26    20744.0000    20227.0000      540    2.49%
Elapsed time = 0.37 sec. (555.57 ticks, tree = 0.01 MB, solutions = 5)
*    30+   30                        20732.0000    20227.0000             2.44%
     80    82    20227.0000    26    20732.0000    20227.0000     1258    2.44%
     81    83    20227.0000    26    20732.0000    20227.0000     1261    2.44%
     82    84    20227.0000    27    20732.0000    20227.0000     1264    2.44%
     83    85    20227.0000    28    20732.0000    20227.0000     1268    2.44%
     84    86    20227.0000    27    20732.0000    20227.0000     1270    2.44%
     85    87    20227.0000    27    20732.0000    20227.0000     1272    2.44%
     86    88    20227.0000    27    20732.0000    20227.0000     1274    2.44%
     87    89    20227.0000    28    20732.0000    20227.0000     1277    2.44%
     88    90    20227.0000    29    20732.0000    20227.0000     1281    2.44%
*   150+  150                        20731.0000    20227.0000             2.43%
*   200+  200                        20672.0000    20227.0000             2.15%
*   210+  210                        20640.0000    20227.0000             2.00%
    255   257    20227.0000    26    20640.0000    20227.0000     2952    2.00%
Elapsed time = 0.98 sec. (1509.27 ticks, tree = 2.13 MB, solutions = 9)
*   495+  491                        20595.0000    20227.0000             1.79%
*   495+  489                        20472.0000    20227.0000             1.20%
*   495+  489                        20443.0000    20227.0000             1.06%
*   496+  486                        20425.0000    20227.0000             0.97%
*   496+  486                        20414.0000    20227.0000             0.92%
*   496+  486                        20413.0000    20227.0000             0.91%
*   496+  484                        20399.0000    20227.0000             0.84%
*   497+  324                        20395.0000    20227.0000             0.82%
*   497+  216                        20350.0000    20227.0000             0.60%
*   497+  144                        20344.0000    20227.0000             0.58%
*   497+   96                        20311.0000    20227.0000             0.41%
    497    97    20227.0000    32    20311.0000    20227.0000     5876    0.41%
    498    98    20227.0000    32    20311.0000    20227.0000     5885    0.41%
    499    98    20227.0000    33    20311.0000    20227.0000     5900    0.41%
    500    98    20227.0000    34    20311.0000    20227.0000     5914    0.41%
    501    98    20227.0000    34    20311.0000    20227.0000     5922    0.41%
    502    99    20227.0000    33    20311.0000    20227.0000     5932    0.41%
    503   100    20227.0000    31    20311.0000    20227.0000     5937    0.41%
    504   100    20227.0000    32    20311.0000    20227.0000     5942    0.41%
    505   101    20227.0000    33    20311.0000    20227.0000     5956    0.41%
    506   101    20227.0000    32    20311.0000    20227.0000     5968    0.41%
Elapsed time = 2.22 sec. (3253.66 ticks, tree = 0.85 MB, solutions = 20)
    597   155    20227.0000    28    20311.0000    20227.0000     6655    0.41%
    598   156    20227.0000    28    20311.0000    20227.0000     6669    0.41%
    599   156    20227.0000    28    20311.0000    20227.0000     6679    0.41%
    600   157    20227.0000    29    20311.0000    20227.0000     6703    0.41%
    601   158    20227.0000    29    20311.0000    20227.0000     6705    0.41%
    602   158    20227.0000    29    20311.0000    20227.0000     6707    0.41%
    603   159    20227.0000    29    20311.0000    20227.0000     6712    0.41%
    604   159    20227.0000    29    20311.0000    20227.0000     6725    0.41%
    605   159    20227.0000    29    20311.0000    20227.0000     6730    0.41%
    606   160    20227.0000    29    20311.0000    20227.0000     6734    0.41%
Elapsed time = 2.85 sec. (4275.80 ticks, tree = 1.31 MB, solutions = 20)
    767   272    20227.0000    29    20311.0000    20227.0000     7717    0.41%
    768   273    20227.0000    31    20311.0000    20227.0000     7719    0.41%
    769   274    20227.0000    29    20311.0000    20227.0000     7720    0.41%
    770   275    20227.0000    31    20311.0000    20227.0000     7722    0.41%
    771   276    20227.0000    29    20311.0000    20227.0000     7723    0.41%
    772   277    20227.0000    31    20311.0000    20227.0000     7725    0.41%
    773   278    20227.0000    29    20311.0000    20227.0000     7726    0.41%
    774   279    20227.0000    31    20311.0000    20227.0000     7728    0.41%
    775   280    20227.0000    29    20311.0000    20227.0000     7729    0.41%
    776   281    20227.0000    31    20311.0000    20227.0000     7731    0.41%
Elapsed time = 3.45 sec. (5251.13 ticks, tree = 2.34 MB, solutions = 20)
    961   466    20227.0000    29    20311.0000    20227.0000     8512    0.41%
    962   467    20227.0000    29    20311.0000    20227.0000     8516    0.41%
    963   468    20227.0000    28    20311.0000    20227.0000     8528    0.41%
    964   469    20227.0000    29    20311.0000    20227.0000     8530    0.41%
    965   470    20227.0000    31    20311.0000    20227.0000     8537    0.41%
    966   471    20227.0000    30    20311.0000    20227.0000     8541    0.41%
    967   472    20227.0000    30    20311.0000    20227.0000     8552    0.41%
    968   473    20227.0000    28    20311.0000    20227.0000     8559    0.41%
    969   474    20227.0000    28    20311.0000    20227.0000     8579    0.41%
    970   475    20227.0000    29    20311.0000    20227.0000     8583    0.41%
Elapsed time = 4.09 sec. (6254.97 ticks, tree = 4.03 MB, solutions = 20)
   1196   701    20227.0000    27    20311.0000    20227.0000     9371    0.41%
   1197   702    20227.0000    27    20311.0000    20227.0000     9372    0.41%
   1198   703    20227.0000    27    20311.0000    20227.0000     9373    0.41%
   1199   704    20227.0000    27    20311.0000    20227.0000     9375    0.41%
   1200   705    20227.0000    27    20311.0000    20227.0000     9378    0.41%
   1201   706    20227.0000    27    20311.0000    20227.0000     9379    0.41%
   1202   707    20227.0000    27    20311.0000    20227.0000     9383    0.41%
   1203   708    20227.0000    28    20311.0000    20227.0000     9386    0.41%
   1204   709    20227.0000    29    20311.0000    20227.0000     9389    0.41%
   1205   710    20227.0000    28    20311.0000    20227.0000     9392    0.41%
Elapsed time = 4.73 sec. (7237.79 ticks, tree = 6.12 MB, solutions = 20)
*  1457+  948                        20291.0000    20227.0000             0.32%
*  1467+  956                        20281.0000    20227.0000             0.27%
   1477   968    20227.0000    25    20281.0000    20227.0000    10353    0.27%
   1478   969    20227.0000    25    20281.0000    20227.0000    10354    0.27%
   1479   970    20227.0000    25    20281.0000    20227.0000    10355    0.27%
   1480   971    20227.0000    25    20281.0000    20227.0000    10356    0.27%
   1481   972    20227.0000    25    20281.0000    20227.0000    10357    0.27%
   1482   973    20227.0000    25    20281.0000    20227.0000    10358    0.27%
   1483   974    20227.0000    27    20281.0000    20227.0000    10360    0.27%
   1484   975    20227.0000    25    20281.0000    20227.0000    10361    0.27%
   1485   976    20227.0000    25    20281.0000    20227.0000    10362    0.27%
   1486   977    20227.0000    25    20281.0000    20227.0000    10363    0.27%
Elapsed time = 5.28 sec. (8214.98 ticks, tree = 8.52 MB, solutions = 22)
*  1497+  985                        20278.0000    20227.0000             0.25%
*  1517+  998                        20269.0000    20227.0000             0.21%
*  1527+ 1008                        20268.0000    20227.0000             0.20%
*  1527+ 1008                        20267.0000    20227.0000             0.20%
*  1547+ 1027                        20263.0000    20227.0000             0.18%
*  1547+ 1027                        20262.0000    20227.0000             0.17%
*  1597+ 1077                        20261.0000    20227.0000             0.17%
*  1597+ 1076                        20258.0000    20227.0000             0.15%
*  1617+ 1096                        20253.0000    20227.0000             0.13%
*  1637+ 1112                        20251.0000    20227.0000             0.12%
*  1657+ 1130                        20245.0000    20227.0000             0.09%
*  1677+ 1150                        20244.0000    20227.0000             0.08%
   1782  1250    20228.0000    18    20244.0000    20227.0000    11673    0.08%
   1783  1251    20228.0000    18    20244.0000    20227.0000    11679    0.08%
   1784  1252    20231.0000    13    20244.0000    20227.0000    11687    0.08%
   1785  1253    20228.0000    19    20244.0000    20227.0000    11690    0.08%
   1786  1254    20228.0000    19    20244.0000    20227.0000    11694    0.08%
*  1787+ 1252                        20241.0000    20227.0000             0.07%
   1787  1253    20228.8000    18    20241.0000    20227.0000    11701    0.07%
   1788  1254    20228.0000    20    20241.0000    20227.0000    11703    0.07%
   1789  1255    20228.0000    20    20241.0000    20227.0000    11705    0.07%
   1790  1256    20240.0000     8    20241.0000    20227.0000    11711    0.07%
   1791  1257    20228.0000    20    20241.0000    20227.0000    11713    0.07%
Elapsed time = 5.77 sec. (9196.42 ticks, tree = 11.13 MB, solutions = 35)
*  1887+ 1326                        20239.0000    20227.0000             0.06%
*  1887+ 1323                        20237.0000    20227.0000             0.05%
   2138  1526    20234.0000    14    20237.0000    20227.0000    12887    0.05%
   2139  1527    20234.0000    14    20237.0000    20227.0000    12888    0.05%
   2140  1528    20234.0000    14    20237.0000    20227.0000    12889    0.05%
   2141  1529    20234.0000    13    20237.0000    20227.0000    12892    0.05%
   2142  1530    20234.0000    14    20237.0000    20227.0000    12896    0.05%
   2143  1531    20234.0000    14    20237.0000    20227.0000    12897    0.05%
   2144  1532    20234.0000    10    20237.0000    20227.0000    12899    0.05%
   2145  1533    20234.0000    10    20237.0000    20227.0000    12900    0.05%
   2146  1534    20234.0000     9    20237.0000    20227.0000    12904    0.05%
   2147  1535    20234.0000     9    20237.0000    20227.0000    12906    0.05%
Elapsed time = 6.31 sec. (10167.54 ticks, tree = 13.68 MB, solutions = 37)
*  2192  1566      integral     0    20236.0000    20227.0000    13000    0.04%
*  2292+ 1435                        20234.0000    20227.0000             0.03%
*  2292+ 1422                        20233.0000    20227.0000             0.03%
   2650  1729    20230.0000    20    20233.0000    20227.0000    14777    0.03%
   2651  1730    20230.0000    20    20233.0000    20227.0000    14778    0.03%
   2652  1731    20230.0000    20    20233.0000    20227.0000    14781    0.03%
   2653  1732    20230.0000    21    20233.0000    20227.0000    14783    0.03%
   2654  1733    20230.0000    20    20233.0000    20227.0000    14784    0.03%
   2655  1734    20230.0000    20    20233.0000    20227.0000    14785    0.03%
   2656  1735    20230.0000    21    20233.0000    20227.0000    14786    0.03%
   2657  1736    20230.0000    21    20233.0000    20227.0000    14787    0.03%
   2658  1737    20230.0000    21    20233.0000    20227.0000    14788    0.03%
   4808  3597    20229.0000    18    20233.0000    20227.0000    21464    0.03%
Elapsed time = 8.40 sec. (13982.62 ticks, tree = 32.68 MB, solutions = 40)
   7575  6161    20230.0000    10    20233.0000    20227.0000    31237    0.03%
   7576  6162    20230.0000    10    20233.0000    20227.0000    31238    0.03%
   7577  6163    20230.0000     7    20233.0000    20227.0000    31242    0.03%
   7578  6164    20230.0000    13    20233.0000    20227.0000    31250    0.03%
   7579  6165    20230.0000     8    20233.0000    20227.0000    31252    0.03%
   7580  6166    20230.0000    13    20233.0000    20227.0000    31258    0.03%
   7581  6167    20230.0000     8    20233.0000    20227.0000    31259    0.03%
   7582  6168    20230.0000    15    20233.0000    20227.0000    31268    0.03%
   7583  6169    20230.0000     8    20233.0000    20227.0000    31269    0.03%
   7584  6170    20230.0000    15    20233.0000    20227.0000    31276    0.03%
Elapsed time = 10.46 sec. (17809.02 ticks, tree = 56.10 MB, solutions = 40)
* 10238  5926      integral     0    20231.0000    20227.0000    38100    0.02%
* 10257  4984      integral     0    20230.0000    20227.0000    38126    0.01%
  10397  5117    20229.0000    12    20230.0000    20227.0000    38436    0.01%
  10398  5118    20227.1538    24    20230.0000    20227.0000    38443    0.01%
  10399  5119    20227.0000    23    20230.0000    20227.0000    38451    0.01%
  10400  5120    20227.0000    23    20230.0000    20227.0000    38453    0.01%
  10401  5121    20227.0000    23    20230.0000    20227.0000    38454    0.01%
  10402  5122    20227.0000    23    20230.0000    20227.0000    38455    0.01%
  10403  5123    20227.0000    23    20230.0000    20227.0000    38457    0.01%
  10404  5124    20227.0000    23    20230.0000    20227.0000    38458    0.01%
  10405  5125    20227.0000    23    20230.0000    20227.0000    38460    0.01%
  10406  5126    20227.0000    23    20230.0000    20227.0000    38461    0.01%
Elapsed time = 12.96 sec. (22035.05 ticks, tree = 46.70 MB, solutions = 42)
  14043  8322    20228.0000    24    20230.0000    20227.0000    47420    0.01%
  14044  8323    20228.0000    24    20230.0000    20227.0000    47421    0.01%
  14045  8322        cutoff          20230.0000    20227.0000    47425    0.01%
  14046  8323    20228.0000    22    20230.0000    20227.0000    47426    0.01%
  14047  8324    20228.0000    22    20230.0000    20227.0000    47433    0.01%
  14048  8325    20228.0000    20    20230.0000    20227.0000    47437    0.01%
  14049  8326    20228.0000    20    20230.0000    20227.0000    47438    0.01%
  14050  8327    20228.0000    24    20230.0000    20227.0000    47444    0.01%
  14051  8328    20228.0000    25    20230.0000    20227.0000    47446    0.01%
  14052  8329    20228.0000    23    20230.0000    20227.0000    47447    0.01%
Elapsed time = 15.18 sec. (25859.42 ticks, tree = 76.03 MB, solutions = 42)
  17704 11538    20229.0000    13    20230.0000    20227.0000    56226    0.01%
  17705 11539    20229.0000    13    20230.0000    20227.0000    56227    0.01%
  17706 11540    20229.0000    13    20230.0000    20227.0000    56228    0.01%
  17707 11541    20229.0000    13    20230.0000    20227.0000    56229    0.01%
  17708 11542    20229.0000    13    20230.0000    20227.0000    56230    0.01%
  17709 11543    20229.0000    13    20230.0000    20227.0000    56231    0.01%
  17710 11544    20229.0000    15    20230.0000    20227.0000    56233    0.01%
  17711 11545    20229.0000    13    20230.0000    20227.0000    56236    0.01%
  17712 11546    20229.0000    13    20230.0000    20227.0000    56237    0.01%
  17713 11547    20229.0000    13    20230.0000    20227.0000    56239    0.01%
Elapsed time = 17.39 sec. (29683.19 ticks, tree = 105.49 MB, solutions = 42)
  21238 14555    20229.0000    12    20230.0000    20227.0000    64536    0.01%
  21239 14556    20229.0000    12    20230.0000    20227.0000    64537    0.01%
  21240 14557    20229.0000    12    20230.0000    20227.0000    64538    0.01%
  21241 14558    20229.0000    11    20230.0000    20227.0000    64539    0.01%
  21242 14559    20229.0000    11    20230.0000    20227.0000    64540    0.01%
  21243 14560    20229.0000    10    20230.0000    20227.0000    64542    0.01%
  21244 14561    20229.0000    10    20230.0000    20227.0000    64543    0.01%
  21245 14562    20229.0000    10    20230.0000    20227.0000    64544    0.01%
  21246 14563    20229.0000    10    20230.0000    20227.0000    64545    0.01%
  21247 14564    20229.0000    10    20230.0000    20227.0000    64546    0.01%
Elapsed time = 19.51 sec. (33505.75 ticks, tree = 133.12 MB, solutions = 42)
* 22197+ 5942                        20229.0000    20227.0000             0.01%

Cover cuts applied:  1
Mixed integer rounding cuts applied:  3
Gomory fractional cuts applied:  1

Root node processing (before b&c):
  Real time             =    0.37 sec. (557.25 ticks)
Sequential b&c:
  Real time             =   19.82 sec. (34071.34 ticks)
                          ------------
Total (root+branch&cut) =   20.19 sec. (34628.59 ticks)

Populate: phase II 
Tried aggregator 2 times.
Aggregator did 20 substitutions.
Reduced MIP has 420 rows, 8001 columns, and 16020 nonzeros.
Reduced MIP has 8000 binaries, 0 generals, 0 SOSs, and 0 indicators.
Presolve time = 0.01 sec. (11.36 ticks)
Probing time = 0.00 sec. (2.74 ticks)
Clique table members: 400.
MIP emphasis: balance optimality and feasibility.
MIP search method: dynamic search.
Parallel mode: none, using 1 thread.
Root relaxation solution time = 0.02 sec. (32.90 ticks)

        Nodes                                         Cuts/
   Node  Left     Objective  IInf  Best Integer    Best Bound    ItCnt     Gap

*     0+    0                        20229.0000        0.0000           100.00%
      0     0    20226.4500    38    20229.0000    20226.4500      386    0.01%
      0     2    20227.0000    37    20229.0000    20227.0000      386    0.01%
Elapsed time = 0.40 sec. (513.14 ticks, tree = 0.01 MB, solutions = 65)
      1     3    20227.0000    37    20229.0000    20227.0000      392    0.01%
      2     4    20227.0000    36    20229.0000    20227.0000      401    0.01%
      3     5    20227.0000    36    20229.0000    20227.0000      417    0.01%
      4     6    20227.0000    35    20229.0000    20227.0000      421    0.01%
      5     7    20227.0000    33    20229.0000    20227.0000      444    0.01%
      6     8    20227.0000    33    20229.0000    20227.0000      448    0.01%
      7     9    20227.0000    33    20229.0000    20227.0000      450    0.01%
      8    10    20227.0000    33    20229.0000    20227.0000      452    0.01%
      9    11    20227.0000    32    20229.0000    20227.0000      461    0.01%
     10    12    20227.0000    33    20229.0000    20227.0000      478    0.01%
Elapsed time = 3.81 sec. (4204.00 ticks, tree = 0.07 MB, solutions = 203)
     20    22    20227.0000    32    20229.0000    20227.0000      545    0.01%
     21    23    20227.0000    32    20229.0000    20227.0000      549    0.01%
     22    24    20227.0000    31    20229.0000    20227.0000      556    0.01%
     23    25    20227.0000    33    20229.0000    20227.0000      567    0.01%
     24    26    20227.0000    32    20229.0000    20227.0000      571    0.01%
     25    27    20227.0000    32    20229.0000    20227.0000      583    0.01%
     26    28    20227.0000    32    20229.0000    20227.0000      585    0.01%
     27    29    20227.0000    34    20229.0000    20227.0000      600    0.01%
     28    30    20227.0000    32    20229.0000    20227.0000      602    0.01%
     29    31    20227.0000    32    20229.0000    20227.0000      604    0.01%
Elapsed time = 5.74 sec. (6039.36 ticks, tree = 0.22 MB, solutions = 363)
     38    40    20227.0000    33    20229.0000    20227.0000      655    0.01%
     39    41    20227.0000    33    20229.0000    20227.0000      663    0.01%
     40    42    20227.0000    33    20229.0000    20227.0000      671    0.01%
     41    43    20227.0000    34    20229.0000    20227.0000      676    0.01%
     42    44    20227.0000    33    20229.0000    20227.0000      681    0.01%
     43    45    20227.0000    31    20229.0000    20227.0000      687    0.01%
     44    46    20227.0000    34    20229.0000    20227.0000      705    0.01%
     45    47    20227.0000    31    20229.0000    20227.0000      706    0.01%
     46    48    20227.0000    32    20229.0000    20227.0000      712    0.01%
     47    49    20227.0000    33    20229.0000    20227.0000      719    0.01%
Elapsed time = 7.66 sec. (7905.16 ticks, tree = 0.37 MB, solutions = 531)
     58    60    20227.0000    31    20229.0000    20227.0000      816    0.01%
     59    61    20227.0000    32    20229.0000    20227.0000      829    0.01%
     60    62    20227.0000    31    20229.0000    20227.0000      835    0.01%
     61    63    20227.0000    33    20229.0000    20227.0000      849    0.01%
     62    64    20227.0000    31    20229.0000    20227.0000      856    0.01%
     63    65    20227.0000    33    20229.0000    20227.0000      866    0.01%
     64    66    20227.0000    31    20229.0000    20227.0000      873    0.01%
     65    67    20227.0000    32    20229.0000    20227.0000      885    0.01%
     66    68    20227.0000    32    20229.0000    20227.0000      890    0.01%
     67    69    20227.0000    32    20229.0000    20227.0000      896    0.01%
Elapsed time = 9.54 sec. (9700.53 ticks, tree = 0.53 MB, solutions = 713)
     78    80    20227.0000    34    20229.0000    20227.0000      996    0.01%
     79    81    20227.0000    33    20229.0000    20227.0000      997    0.01%
     80    82    20227.0000    33    20229.0000    20227.0000     1003    0.01%
     81    83    20227.0000    35    20229.0000    20227.0000     1006    0.01%
     82    84    20227.0000    36    20229.0000    20227.0000     1021    0.01%
     83    85    20227.0000    35    20229.0000    20227.0000     1030    0.01%
     84    86    20227.0000    34    20229.0000    20227.0000     1037    0.01%
     85    87    20227.0000    34    20229.0000    20227.0000     1042    0.01%
     86    88    20227.0000    33    20229.0000    20227.0000     1050    0.01%
     87    89    20227.0000    34    20229.0000    20227.0000     1063    0.01%
Elapsed time = 11.45 sec. (11551.80 ticks, tree = 0.69 MB, solutions = 865)
     93    95    20227.0000    34    20229.0000    20227.0000     1114    0.01%
     94    96    20227.0000    32    20229.0000    20227.0000     1121    0.01%
     95    97    20227.0000    34    20229.0000    20227.0000     1131    0.01%
     96    98    20227.0000    32    20229.0000    20227.0000     1138    0.01%
     97    99    20227.0000    34    20229.0000    20227.0000     1155    0.01%
     98   100    20227.0000    33    20229.0000    20227.0000     1162    0.01%
     99   101    20227.0000    34    20229.0000    20227.0000     1166    0.01%
    100   102    20227.0000    32    20229.0000    20227.0000     1175    0.01%
    101   103    20227.0000    34    20229.0000    20227.0000     1188    0.01%
    102   104    20227.0000    33    20229.0000    20227.0000     1190    0.01%
Elapsed time = 13.57 sec. (13542.61 ticks, tree = 0.82 MB, solutions = 1042)
    115   117    20227.0000    28    20229.0000    20227.0000     1326    0.01%
    116   118    20227.0000    29    20229.0000    20227.0000     1342    0.01%
    117   119    20227.0000    28    20229.0000    20227.0000     1348    0.01%
    118   120    20227.0000    28    20229.0000    20227.0000     1366    0.01%
    119   121    20227.0000    29    20229.0000    20227.0000     1379    0.01%
    120   122    20227.0000    28    20229.0000    20227.0000     1381    0.01%
    121   123    20227.0000    29    20229.0000    20227.0000     1395    0.01%
    122   124    20227.0000    28    20229.0000    20227.0000     1402    0.01%
    123   125    20227.0000    29    20229.0000    20227.0000     1408    0.01%
    124   126    20227.0000    27    20229.0000    20227.0000     1413    0.01%
Elapsed time = 15.27 sec. (15234.82 ticks, tree = 1.00 MB, solutions = 1154)
    137   139    20227.0000    29    20229.0000    20227.0000     1552    0.01%
    138   140    20227.0000    31    20229.0000    20227.0000     1579    0.01%
    139   141    20227.0000    28    20229.0000    20227.0000     1584    0.01%
    140   142    20227.0000    27    20229.0000    20227.0000     1587    0.01%
    141   143    20227.0000    32    20229.0000    20227.0000     1617    0.01%
    142   144    20227.0000    29    20229.0000    20227.0000     1619    0.01%
    143   145    20227.0000    29    20229.0000    20227.0000     1624    0.01%
    144   146    20227.0000    29    20229.0000    20227.0000     1635    0.01%
    145   147    20227.0000    32    20229.0000    20227.0000     1658    0.01%
    146   148    20227.0000    30    20229.0000    20227.0000     1664    0.01%
Elapsed time = 17.46 sec. (17353.50 ticks, tree = 1.18 MB, solutions = 1339)
    157   159    20227.0000    29    20229.0000    20227.0000     1777    0.01%
    158   160    20227.0000    31    20229.0000    20227.0000     1794    0.01%
    159   161    20227.0000    30    20229.0000    20227.0000     1799    0.01%
    160   162    20227.0000    32    20229.0000    20227.0000     1832    0.01%
    161   163    20227.0000    30    20229.0000    20227.0000     1837    0.01%
    162   164    20227.0000    29    20229.0000    20227.0000     1843    0.01%
    163   165    20227.0000    31    20229.0000    20227.0000     1860    0.01%
    164   166    20227.0000    29    20229.0000    20227.0000     1866    0.01%
    165   167    20227.0000    31    20229.0000    20227.0000     1897    0.01%
    166   168    20227.0000    29    20229.0000    20227.0000     1905    0.01%
Elapsed time = 19.20 sec. (19063.11 ticks, tree = 1.35 MB, solutions = 1489)
    177   179    20227.0000    30    20229.0000    20227.0000     2018    0.01%
    178   180    20227.0000    29    20229.0000    20227.0000     2030    0.01%
    179   181    20227.0000    29    20229.0000    20227.0000     2051    0.01%
    180   182    20227.0000    29    20229.0000    20227.0000     2055    0.01%
    181   183    20227.0000    29    20229.0000    20227.0000     2060    0.01%
    182   184    20227.0000    29    20229.0000    20227.0000     2067    0.01%
    183   185    20227.0000    30    20229.0000    20227.0000     2085    0.01%
    184   186    20227.0000    30    20229.0000    20227.0000     2090    0.01%
    185   187    20227.0000    29    20229.0000    20227.0000     2105    0.01%
    209   211    20227.0000    27    20229.0000    20227.0000     2388    0.01%
Elapsed time = 23.23 sec. (22884.97 ticks, tree = 1.70 MB, solutions = 1843)

Root node processing (before b&c):
  Real time             =    0.50 sec. (622.57 ticks)
Sequential b&c:
  Real time             =   25.42 sec. (24854.40 ticks)
                          ------------
Total (root+branch&cut) =   25.92 sec. (25476.98 ticks)
